
(set-logic ALL) 

(declare-datatype MyList ((Nil) (Cons (head Real) (tail MyList)) )) 
(declare-fun l0 () MyList) 
(declare-fun l1 () MyList) 
(declare-fun l2 () MyList) 
(declare-fun l3 () MyList) 
(declare-fun i0 () Real) 
(declare-fun i1 () Real) 
(assert (and (= l3 l1) (is-Nil Nil) (= l2 l0)) )
(assert (= l3 l1) )
(assert (not (= l1 l2)) )
(assert (= l0 Nil) )
(assert (is-Cons Nil) )
(assert (is-Cons l3) )
(assert (= l3 Nil) )
(assert (not (= l2 l3)) )
(check-sat)
